max: 
310 x11 + 380 x12 + 350 x13 + 285 x14 + 
310 x21 + 380 x22 + 350 x23 + 285 x24 + 
310 x31 + 380 x32 + 350 x33 + 285 x34;


x11 + x12 + x13 + x14 <= 10;
x21 + x22 + x23 + x24 <= 16;
x31 + x32 + x33 + x34 <= 8;

26.666667 x11 + 43.333333 x12 + 25.217391 x13 + 32.500000 x14 <= 6800;
26.666667 x21 + 43.333333 x22 + 25.217391 x23 + 32.500000 x24 <= 8700;
26.666667 x31 + 43.333333 x32 + 25.217391 x33 + 32.500000 x34 <= 5300;

x11 + x21 + x31 <= 18;
x12 + x22 + x32 <= 15;
x13 + x23 + x33 <= 23;
x14 + x24 + x34 <= 12;

0.29411765 x21 - x11  + 0.29411765 x22 - x12  + 0.29411765 x23 - x13  + 0.29411765 x24 - x14  <= 0;
0.47058824 x31 - x21  + 0.47058824 x32 - x22  + 0.47058824 x33 - x23  + 0.47058824 x34 - x24  <= 0;
0.23529412 x11 - x31  + 0.23529412 x12 - x32  + 0.23529412 x13 - x33  + 0.23529412 x14 - x34  <= 0;

x11 >= 0; x12 >= 0; x13 >= 0; x14 >= 0; 
x21 >= 0; x22 >= 0; x23 >= 0; x24 >= 0; 
x31 >= 0; x32 >= 0; x33 >= 0; x34 >= 0; 
